(set-option :print-success false)
(set-logic QF_UF)
(declare-sort x85 0)
(declare-sort x93 0)
(declare-fun x139 () x93)
(declare-fun x69 () x93)
(declare-fun x84 () x93)
(declare-fun x41 () x93)
(declare-fun x3 (x93 x93) x93)
(declare-fun x47 () x93)
(assert (not (and (and (and (= (x3 x69 x69) x47) (= x84 (x3 x139 x69))) (= (x3 x41 x47) x139)) (= (x3 x69 x47) x41))))
(assert (not (and (= x139 (x3 x84 x69)) (and (= x41 (x3 x139 x69)) (and (= (x3 x41 x84) x47) (= x69 (x3 x84 x84)))))))
(assert (not (and (= x84 (x3 x69 x47)) (and (= (x3 x84 x47) x139) (and (= x47 (x3 x69 x69)) (= (x3 x139 x69) x41))))))
(assert (not (and (and (= (x3 x41 x139) x69) (and (= x84 (x3 x69 x47)) (= (x3 x47 x47) x139))) (= (x3 x47 x139) x41))))
(assert (not (and (and (and (= (x3 x139 x139) x84) (= x41 (x3 x47 x139))) (= (x3 x69 x84) x47)) (= (x3 x139 x84) x69))))
(assert (not (and (and (and (= x47 (x3 x69 x84)) (= (x3 x84 x84) x41)) (= (x3 x139 x41) x69)) (= x139 (x3 x84 x41)))))
(assert (not (and (= x47 (x3 x84 x139)) (and (and (= x41 (x3 x69 x84)) (= (x3 x84 x84) x139)) (= x69 (x3 x47 x139))))))
(assert (not (and (= (x3 x41 x69) x139) (and (= (x3 x139 x69) x84) (and (= x69 (x3 x41 x41)) (= x47 (x3 x84 x41)))))))
(assert (not (and (= (x3 x69 x84) x41) (and (= (x3 x41 x84) x139) (and (= (x3 x69 x69) x84) (= (x3 x139 x69) x47))))))
(assert (not (and (= (x3 x84 x69) x41) (and (= (x3 x41 x69) x47) (and (= (x3 x84 x84) x69) (= x139 (x3 x47 x84)))))))
(assert (not (and (and (= x139 (x3 x84 x41)) (and (= x69 (x3 x139 x47)) (= x41 (x3 x47 x47)))) (= x84 (x3 x47 x41)))))
(assert (not (and (and (and (= (x3 x69 x69) x139) (= (x3 x41 x69) x84)) (= x41 (x3 x47 x139))) (= x47 (x3 x69 x139)))))
(assert (not (and (and (and (= (x3 x139 x84) x69) (= x41 (x3 x84 x84))) (= (x3 x47 x41) x139)) (= (x3 x84 x41) x47))))
(assert (not (and (= (x3 x139 x47) x41) (and (= (x3 x41 x47) x84) (and (= x47 (x3 x139 x139)) (= x69 (x3 x84 x139)))))))
(assert (not (and (and (= (x3 x69 x47) x139) (and (= (x3 x41 x41) x47) (= x84 (x3 x139 x41)))) (= (x3 x41 x47) x69))))
(assert (not (and (= (x3 x41 x139) x84) (and (= (x3 x84 x139) x69) (and (= x47 (x3 x69 x41)) (= (x3 x41 x41) x139))))))
(assert (not (and (and (= (x3 x47 x41) x69) (and (= (x3 x84 x84) x41) (= x139 (x3 x69 x84)))) (= (x3 x84 x41) x47))))
(assert (not (and (and (= (x3 x84 x41) x69) (and (= (x3 x69 x139) x47) (= x41 (x3 x139 x139)))) (= x84 (x3 x139 x41)))))
(assert (not (and (and (and (= x47 (x3 x69 x69)) (= x139 (x3 x41 x69))) (= (x3 x84 x47) x41)) (= x84 (x3 x69 x47)))))
(assert (not (and (and (and (= (x3 x139 x139) x47) (= x41 (x3 x84 x139))) (= (x3 x69 x47) x84)) (= (x3 x139 x47) x69))))
(assert (not (and (and (and (= x69 (x3 x84 x84)) (= (x3 x139 x84) x41)) (= (x3 x47 x69) x139)) (= x47 (x3 x84 x69)))))
(assert (not (and (= (x3 x47 x69) x139) (and (= x84 (x3 x139 x69)) (and (= x41 (x3 x84 x47)) (= (x3 x47 x47) x69))))))
(assert (not (and (and (and (= x139 (x3 x84 x41)) (= x69 (x3 x41 x41))) (= (x3 x47 x69) x84)) (= x47 (x3 x41 x69)))))
(assert (not (and (= x69 (x3 x41 x139)) (and (= x47 (x3 x69 x139)) (and (= (x3 x41 x41) x139) (= x84 (x3 x47 x41)))))))
(assert (not (and (= (x3 x47 x84) x69) (and (and (= (x3 x47 x47) x84) (= x41 (x3 x139 x47))) (= (x3 x69 x84) x139)))))
(assert (not (and (and (= (x3 x47 x84) x139) (and (= x84 (x3 x41 x41)) (= x69 (x3 x139 x41)))) (= x47 (x3 x41 x84)))))
(assert (not (and (and (= (x3 x41 x69) x139) (and (= x84 (x3 x139 x47)) (= x69 (x3 x47 x47)))) (= x41 (x3 x47 x69)))))
(assert (not (and (and (and (= x47 (x3 x139 x84)) (= (x3 x84 x84) x69)) (= (x3 x41 x69) x139)) (= (x3 x84 x69) x41))))
(assert (not (and (= x41 (x3 x84 x139)) (and (and (= (x3 x47 x84) x69) (= (x3 x84 x84) x139)) (= x47 (x3 x41 x139))))))
(assert (not (and (and (and (= (x3 x69 x84) x47) (= (x3 x84 x84) x139)) (= (x3 x41 x139) x69)) (= (x3 x84 x139) x41))))
(assert (not (and (and (= (x3 x139 x47) x69) (and (= x41 (x3 x69 x84)) (= (x3 x84 x84) x47))) (= x139 (x3 x84 x47)))))
(assert (not (and (= x47 (x3 x69 x84)) (and (= x139 (x3 x47 x84)) (and (= x84 (x3 x69 x69)) (= (x3 x139 x69) x41))))))
(assert (not (and (= (x3 x84 x139) x47) (and (= x41 (x3 x47 x139)) (and (= x139 (x3 x84 x84)) (= (x3 x41 x84) x69))))))
(assert (not (and (and (= (x3 x84 x47) x41) (and (= x69 (x3 x41 x139)) (= (x3 x139 x139) x47))) (= x84 (x3 x139 x47)))))
(assert (not (and (= (x3 x69 x41) x47) (and (and (= (x3 x69 x69) x41) (= (x3 x84 x69) x139)) (= (x3 x47 x41) x84)))))
(assert (not (and (= x47 (x3 x69 x139)) (and (and (= (x3 x84 x69) x41) (= x139 (x3 x69 x69))) (= (x3 x47 x139) x84)))))
(assert (not (and (and (and (= (x3 x84 x139) x47) (= x69 (x3 x139 x139))) (= (x3 x41 x69) x84)) (= x41 (x3 x139 x69)))))
(assert (not (and (and (and (= (x3 x139 x139) x84) (= (x3 x69 x139) x41)) (= x69 (x3 x47 x84))) (= (x3 x139 x84) x47))))
(assert (let ((x131 (x3 x41 x41)) (x19 (x3 x69 x69)) (x140 (x3 x47 x47)) (x34 (x3 x139 x139)) (x145 (x3 x84 x84))) (or (and (not (= x69 x19)) (and (not (= x131 x69)) (and (and (not (= x145 x69)) (not (= x69 x34))) (not (= x69 x140))))) (or (or (and (not (= x47 x19)) (and (and (and (not (= x47 x145)) (not (= x34 x47))) (not (= x47 x140))) (not (= x47 x131)))) (or (and (not (= x19 x139)) (and (and (not (= x140 x139)) (and (not (= x34 x139)) (not (= x139 x145)))) (not (= x131 x139)))) (and (and (and (not (= x84 x140)) (and (not (= x84 x145)) (not (= x34 x84)))) (not (= x131 x84))) (not (= x84 x19))))) (and (not (= x41 x19)) (and (not (= x131 x41)) (and (not (= x41 x140)) (and (not (= x145 x41)) (not (= x41 x34))))))))))
(assert (not (and (and (= x139 (x3 x47 x41)) (and (= x84 (x3 x139 x69)) (= x41 (x3 x69 x69)))) (= x47 (x3 x69 x41)))))
(assert (not (and (and (and (= x139 (x3 x47 x47)) (= x41 (x3 x84 x47))) (= x84 (x3 x69 x139))) (= x69 (x3 x47 x139)))))
(assert (not (and (= (x3 x41 x47) x84) (and (and (= x47 (x3 x41 x41)) (= (x3 x139 x41) x69)) (= (x3 x84 x47) x139)))))
(assert (not (and (= (x3 x47 x84) x139) (and (and (= (x3 x69 x47) x41) (= x84 (x3 x47 x47))) (= x69 (x3 x139 x84))))))
(assert (not (and (= x69 (x3 x139 x47)) (and (and (= (x3 x41 x139) x84) (= x47 (x3 x139 x139))) (= (x3 x69 x47) x41)))))
(assert (not (and (= (x3 x47 x41) x84) (and (= x69 (x3 x84 x41)) (and (= (x3 x69 x47) x139) (= (x3 x47 x47) x41))))))
(assert (not (and (= x139 (x3 x41 x47)) (and (and (= x47 (x3 x41 x41)) (= x84 (x3 x69 x41))) (= x69 (x3 x139 x47))))))
(assert (or (and (and (and (not (= (x3 (x3 x47 x69) x69) x47)) (and (not (= x84 (x3 (x3 x84 x69) x69))) (not (= x139 (x3 (x3 x139 x69) x69))))) (not (= (x3 (x3 x41 x69) x69) x41))) (not (= (x3 (x3 x69 x69) x69) x69))) (or (or (or (and (not (= x69 (x3 (x3 x69 x84) x84))) (and (and (and (not (= x84 (x3 (x3 x84 x84) x84))) (not (= (x3 (x3 x139 x84) x84) x139))) (not (= (x3 (x3 x47 x84) x84) x47))) (not (= (x3 (x3 x41 x84) x84) x41)))) (and (not (= x69 (x3 (x3 x69 x139) x139))) (and (not (= x41 (x3 (x3 x41 x139) x139))) (and (and (not (= (x3 (x3 x84 x139) x139) x84)) (not (= x139 (x3 (x3 x139 x139) x139)))) (not (= x47 (x3 (x3 x47 x139) x139))))))) (and (not (= (x3 (x3 x69 x47) x47) x69)) (and (not (= x41 (x3 (x3 x41 x47) x47))) (and (not (= x47 (x3 (x3 x47 x47) x47))) (and (not (= x84 (x3 (x3 x84 x47) x47))) (not (= x139 (x3 (x3 x139 x47) x47)))))))) (and (and (not (= x41 (x3 (x3 x41 x41) x41))) (and (and (not (= x139 (x3 (x3 x139 x41) x41))) (not (= (x3 (x3 x84 x41) x41) x84))) (not (= x47 (x3 (x3 x47 x41) x41))))) (not (= (x3 (x3 x69 x41) x41) x69))))))
(assert (not (and (= x84 (x3 x139 x69)) (and (= (x3 x84 x69) x41) (and (= x47 (x3 x41 x139)) (= (x3 x139 x139) x69))))))
(assert (not (and (and (and (= (x3 x41 x41) x139) (= x69 (x3 x84 x41))) (= x84 (x3 x47 x139))) (= x47 (x3 x41 x139)))))
(assert (not (and (and (= x69 (x3 x84 x139)) (and (= (x3 x47 x47) x139) (= (x3 x69 x47) x41))) (= (x3 x47 x139) x84))))
(assert (not (and (= x139 (x3 x41 x69)) (and (= (x3 x139 x69) x47) (and (= (x3 x41 x41) x69) (= x84 (x3 x47 x41)))))))
(assert (not (and (and (and (= (x3 x69 x69) x41) (= (x3 x47 x69) x84)) (= x47 (x3 x139 x41))) (= (x3 x69 x41) x139))))
(assert (not (and (= (x3 x139 x47) x41) (and (= x69 (x3 x41 x47)) (and (= x84 (x3 x69 x139)) (= x47 (x3 x139 x139)))))))
(assert (not (and (= (x3 x139 x84) x41) (and (= x47 (x3 x41 x84)) (and (= (x3 x47 x139) x69) (= x84 (x3 x139 x139)))))))
(assert (not (and (and (and (= x69 (x3 x47 x41)) (= (x3 x41 x41) x84)) (= (x3 x139 x84) x47)) (= (x3 x41 x84) x139))))
(assert (not (and (= x69 (x3 x47 x41)) (and (= (x3 x69 x41) x139) (and (= (x3 x139 x47) x84) (= (x3 x47 x47) x41))))))
(assert (not (and (= x41 (x3 x47 x139)) (and (= x84 (x3 x41 x139)) (and (= x69 (x3 x84 x47)) (= x139 (x3 x47 x47)))))))
(assert (not (and (and (= (x3 x139 x84) x47) (and (= (x3 x69 x69) x84) (= (x3 x47 x69) x41))) (= (x3 x69 x84) x139))))
(assert (not (and (and (= x139 (x3 x41 x84)) (and (= (x3 x139 x47) x69) (= x84 (x3 x47 x47)))) (= (x3 x47 x84) x41))))
(assert (not (and (and (= x47 (x3 x69 x41)) (and (= (x3 x47 x84) x139) (= x41 (x3 x84 x84)))) (= x69 (x3 x84 x41)))))
(assert (not (and (= (x3 x84 x47) x41) (and (= (x3 x41 x47) x69) (and (= (x3 x69 x84) x139) (= (x3 x84 x84) x47))))))
(assert (let ((x19 (x3 x69 x84)) (x150 (x3 x69 x41)) (x107 (x3 x69 x69)) (x20 (x3 x47 x139)) (x8 (x3 x41 x69)) (x9 (x3 x139 x139)) (x116 (x3 x41 x47)) (x129 (x3 x47 x47)) (x88 (x3 x84 x69)) (x145 (x3 x84 x84)) (x26 (x3 x69 x47)) (x101 (x3 x47 x41)) (x152 (x3 x139 x69)) (x137 (x3 x47 x69)) (x96 (x3 x139 x47)) (x131 (x3 x41 x84)) (x126 (x3 x84 x47)) (x34 (x3 x139 x84)) (x140 (x3 x47 x84)) (x149 (x3 x139 x41)) (x39 (x3 x84 x139)) (x40 (x3 x84 x41)) (x50 (x3 x41 x139)) (x89 (x3 x41 x41)) (x73 (x3 x69 x139))) (and (and (and (and (not (= x89 x150)) (and (not (= x101 x150)) (and (not (= x89 x101)) (and (not (= x150 x149)) (and (and (not (= x101 x149)) (and (not (= x40 x150)) (and (not (= x40 x89)) (and (not (= x40 x101)) (not (= x149 x40)))))) (not (= x89 x149))))))) (and (and (and (not (= x131 x19)) (and (and (not (= x140 x131)) (and (and (not (= x131 x34)) (and (and (not (= x145 x19)) (and (and (not (= x34 x145)) (not (= x140 x145))) (not (= x145 x131)))) (not (= x34 x140)))) (not (= x34 x19)))) (not (= x140 x19)))) (and (not (= x73 x50)) (and (not (= x73 x20)) (and (not (= x50 x20)) (and (not (= x9 x73)) (and (not (= x9 x50)) (and (not (= x20 x9)) (and (not (= x39 x73)) (and (and (not (= x9 x39)) (not (= x20 x39))) (not (= x39 x50))))))))))) (and (and (and (not (= x129 x116)) (and (not (= x96 x26)) (and (and (not (= x96 x129)) (and (not (= x126 x26)) (and (and (not (= x126 x96)) (not (= x129 x126))) (not (= x126 x116))))) (not (= x116 x96))))) (not (= x26 x129))) (not (= x116 x26))))) (and (and (and (and (not (= x107 x152)) (and (and (not (= x137 x152)) (and (not (= x88 x107)) (and (and (not (= x137 x88)) (not (= x152 x88))) (not (= x88 x8))))) (not (= x152 x8)))) (not (= x8 x137))) (not (= x137 x107))) (not (= x107 x8)))) (and (and (not (= x107 x150)) (and (and (and (and (and (and (and (and (not (= x26 x19)) (not (= x73 x19))) (not (= x150 x19))) (not (= x107 x19))) (not (= x26 x73))) (not (= x150 x73))) (not (= x73 x107))) (not (= x150 x26))) (not (= x26 x107)))) (and (and (and (and (not (= x149 x152)) (and (not (= x152 x96)) (and (not (= x149 x96)) (and (not (= x9 x152)) (and (and (and (and (and (not (= x34 x96)) (not (= x9 x34))) (not (= x149 x34))) (not (= x152 x34))) (not (= x96 x9))) (not (= x9 x149))))))) (and (not (= x40 x88)) (and (not (= x126 x88)) (and (and (and (not (= x39 x40)) (and (not (= x126 x39)) (and (and (and (not (= x145 x39)) (not (= x145 x126))) (not (= x145 x40))) (not (= x145 x88))))) (not (= x88 x39))) (not (= x126 x40)))))) (and (and (and (not (= x101 x129)) (and (not (= x137 x20)) (and (and (not (= x20 x129)) (and (not (= x137 x140)) (and (not (= x101 x140)) (and (not (= x20 x140)) (not (= x140 x129)))))) (not (= x101 x20))))) (not (= x129 x137))) (not (= x101 x137)))) (and (not (= x89 x8)) (and (not (= x116 x8)) (and (and (and (not (= x50 x89)) (and (not (= x116 x50)) (and (not (= x131 x8)) (and (not (= x131 x89)) (and (not (= x116 x131)) (not (= x131 x50))))))) (not (= x50 x8))) (not (= x89 x116))))))))))
(assert (not (and (and (= x41 (x3 x139 x47)) (and (= (x3 x41 x69) x84) (= x47 (x3 x69 x69)))) (= (x3 x69 x47) x139))))
(assert (not (and (= (x3 x84 x69) x139) (and (= (x3 x139 x69) x47) (and (= x69 (x3 x84 x84)) (= x41 (x3 x47 x84)))))))
(assert (not (and (and (and (= x47 (x3 x41 x41)) (= (x3 x84 x41) x69)) (= (x3 x139 x47) x84)) (= x139 (x3 x41 x47)))))
(assert (not (and (and (and (= (x3 x69 x69) x139) (= (x3 x47 x69) x84)) (= (x3 x41 x139) x47)) (= (x3 x69 x139) x41))))
(assert (not (and (and (and (= (x3 x41 x47) x84) (= x139 (x3 x47 x47))) (= x41 (x3 x69 x139))) (= x69 (x3 x47 x139)))))
(assert (not (and (= (x3 x84 x139) x69) (and (= x47 (x3 x69 x139)) (and (= (x3 x47 x84) x41) (= x139 (x3 x84 x84)))))))
(assert (not (and (and (and (= x84 (x3 x69 x41)) (= x139 (x3 x41 x41))) (= x69 (x3 x47 x139))) (= x47 (x3 x41 x139)))))
(assert (not (and (and (and (= (x3 x41 x41) x139) (= x69 (x3 x47 x41))) (= x47 (x3 x84 x139))) (= x84 (x3 x41 x139)))))
(assert (not (and (and (= (x3 x139 x84) x41) (and (= (x3 x69 x69) x84) (= x47 (x3 x41 x69)))) (= x139 (x3 x69 x84)))))
(assert (not (and (= x69 (x3 x139 x84)) (and (= (x3 x69 x84) x41) (and (= (x3 x41 x139) x47) (= (x3 x139 x139) x84))))))
(assert (not (and (= x69 (x3 x47 x84)) (and (and (= (x3 x41 x47) x139) (= (x3 x47 x47) x84)) (= x41 (x3 x69 x84))))))
(assert (not (and (= x41 (x3 x84 x47)) (and (and (= (x3 x84 x84) x47) (= x69 (x3 x139 x84))) (= x139 (x3 x41 x47))))))
(assert (not (and (= x84 (x3 x69 x41)) (and (= (x3 x84 x41) x139) (and (= (x3 x139 x69) x47) (= x41 (x3 x69 x69)))))))
(assert (not (and (and (= x84 (x3 x139 x41)) (and (= x41 (x3 x47 x47)) (= (x3 x84 x47) x69))) (= x139 (x3 x47 x41)))))
(assert (not (and (and (= x139 (x3 x47 x69)) (and (= (x3 x41 x41) x69) (= (x3 x139 x41) x84))) (= x47 (x3 x41 x69)))))
(assert (not (and (and (= (x3 x69 x47) x139) (and (= (x3 x84 x84) x47) (= (x3 x139 x84) x41))) (= x69 (x3 x84 x47)))))
(assert (not (and (= x84 (x3 x139 x41)) (and (and (= x41 (x3 x139 x139)) (= (x3 x47 x139) x69)) (= x47 (x3 x84 x41))))))
(assert (not (and (= (x3 x139 x41) x69) (and (= x47 (x3 x69 x41)) (and (= x41 (x3 x139 x139)) (= (x3 x47 x139) x84))))))
(assert (let ((x152 (x3 x139 x69)) (x155 (x3 x69 x139)) (x30 (x3 x69 x41)) (x120 (x3 x69 x69)) (x19 (x3 x84 x41)) (x39 (x3 x84 x69)) (x81 (x3 x47 x47)) (x50 (x3 x47 x84)) (x140 (x3 x84 x139)) (x150 (x3 x139 x47)) (x34 (x3 x84 x84)) (x88 (x3 x139 x41)) (x131 (x3 x84 x47)) (x73 (x3 x41 x84)) (x132 (x3 x41 x41)) (x17 (x3 x41 x69)) (x118 (x3 x41 x47)) (x13 (x3 x69 x47)) (x156 (x3 x47 x69)) (x20 (x3 x139 x84)) (x126 (x3 x69 x84)) (x42 (x3 x41 x139)) (x89 (x3 x139 x139)) (x6 (x3 x47 x41)) (x107 (x3 x47 x139))) (let ((x68 (= x41 x89)) (x121 (= x69 x6)) (x72 (= x41 x81)) (x86 (= x69 x140)) (x40 (= x140 x84)) (x106 (= x126 x69)) (x61 (= x152 x47)) (x94 (= x84 x150)) (x105 (= x50 x47)) (x98 (= x42 x84)) (x51 (= x152 x41)) (x57 (= x139 x120)) (x31 (= x84 x17)) (x138 (= x156 x47)) (x45 (= x73 x139)) (x92 (= x41 x150)) (x97 (= x41 x6)) (x102 (= x41 x13)) (x104 (= x69 x132)) (x123 (= x47 x17)) (x151 (= x139 x132)) (x76 (= x139 x81)) (x79 (= x69 x88)) (x113 (= x41 x156)) (x112 (= x150 x139)) (x55 (= x6 x139)) (x24 (= x139 x30)) (x154 (= x139 x152)) (x49 (= x88 x47)) (x8 (= x89 x139)) (x11 (= x19 x84)) (x127 (= x156 x84)) (x148 (= x47 x89)) (x27 (= x88 x41)) (x108 (= x42 x41)) (x157 (= x39 x41)) (x54 (= x107 x69)) (x12 (= x84 x118)) (x115 (= x131 x84)) (x125 (= x139 x13)) (x91 (= x6 x84)) (x58 (= x17 x139)) (x145 (= x84 x34)) (x83 (= x155 x139)) (x66 (= x17 x69)) (x90 (= x39 x139)) (x10 (= x84 x120)) (x100 (= x84 x50)) (x71 (= x41 x107)) (x7 (= x155 x69)) (x99 (= x150 x69)) (x143 (= x139 x156)) (x32 (= x47 x131)) (x53 (= x81 x69)) (x43 (= x47 x118)) (x16 (= x132 x47)) (x74 (= x41 x132)) (x26 (= x20 x84)) (x109 (= x41 x19)) (x29 (= x6 x47)) (x149 (= x89 x84)) (x82 (= x13 x84)) (x14 (= x150 x47)) (x130 (= x126 x139)) (x119 (= x107 x84)) (x122 (= x140 x47)) (x36 (= x84 x132)) (x63 (= x42 x47)) (x96 (= x34 x47)) (x77 (= x152 x69)) (x18 (= x131 x69)) (x111 (= x41 x120)) (x129 (= x41 x34)) (x158 (= x19 x47)) (x37 (= x84 x126)) (x62 (= x73 x41)) (x4 (= x47 x155)) (x70 (= x30 x84)) (x137 (= x139 x140)) (x56 (= x84 x88)) (x28 (= x42 x139)) (x48 (= x41 x118)) (x78 (= x47 x20)) (x33 (= x47 x73)) (x153 (= x155 x41)) (x136 (= x118 x69)) (x116 (= x69 x34)) (x110 (= x84 x155)) (x64 (= x69 x73)) (x147 (= x30 x47)) (x95 (= x69 x156)) (x80 (= x41 x126)) (x133 (= x139 x107)) (x59 (= x47 x39)) (x141 (= x50 x139)) (x46 (= x81 x84)) (x67 (= x39 x69)) (x142 (= x131 x139)) (x5 (= x50 x41)) (x9 (= x139 x34)) (x22 (= x152 x84)) (x15 (= x131 x41)) (x128 (= x69 x20)) (x1 (= x84 x39)) (x60 (= x81 x47)) (x38 (= x69 x42)) (x146 (= x139 x118)) (x75 (= x19 x139)) (x135 (= x30 x41)) (x2 (= x69 x120)) (x117 (= x69 x30)) (x144 (= x120 x47)) (x65 (= x41 x20)) (x25 (= x47 x126)) (x114 (= x47 x13)) (x52 (= x41 x17)) (x101 (= x139 x20)) (x134 (= x107 x47)) (x35 (= x89 x69)) (x124 (= x69 x13)) (x103 (= x50 x69)) (x44 (= x84 x73)) (x23 (= x19 x69)) (x87 (= x88 x139)) (x21 (= x140 x41))) (and (and (and (and (and (and (and (or (or (or x5 (or x65 x129)) x62) x80) (or (or (or x15 (or x21 x129)) x109) x157)) (and (and (or (or x158 (or (or x122 x96) x32)) x59) (or (or x33 (or (or x96 x78) x105)) x25)) (and (and (or x90 (or x75 (or (or x9 x137) x142))) (or (or (or (or x9 x101) x141) x45) x130)) (and (or (or x44 (or x100 (or x26 x145))) x37) (or (or x11 (or (or x40 x145) x115)) x1))))) (and (or (or (or x18 (or x116 x86)) x23) x67) (or (or x64 (or (or x128 x116) x103)) x106))) (and (and (or (or x79 (or x99 (or x35 x128))) x77) (or (or (or (or x86 x35) x54) x38) x7)) (and (and (and (or (or x63 (or (or x148 x122) x134)) x4) (or (or (or (or x148 x78) x14) x49) x61)) (and (and (or (or (or x119 (or x40 x149)) x98) x110) (or (or (or x94 (or x26 x149)) x56) x22)) (and (or x154 (or x87 (or x112 (or x8 x101)))) (or x83 (or (or x133 (or x8 x137)) x28))))) (and (or x51 (or x27 (or (or x65 x68) x92))) (or x153 (or (or (or x68 x21) x71) x108)))))) (and (and (or (or (or x53 (or x99 x18)) x136) x124) (or (or x121 (or (or x54 x103) x53)) x95)) (and (and (and (and (or (or x146 (or (or x142 x112) x76)) x125) (or (or (or x76 (or x141 x133)) x55) x143)) (and (or x82 (or (or (or x115 x94) x46) x12)) (or (or (or (or x119 x100) x46) x91) x127))) (and (or x138 (or (or (or x134 x105) x60) x29)) (or (or x43 (or (or x32 x14) x60)) x114))) (and (or (or (or (or x15 x92) x72) x48) x102) (or (or (or x72 (or x5 x71)) x97) x113))))) (and (and (or (or (or x136 (or x38 x64)) x104) x66) (or x117 (or x104 (or (or x23 x79) x121)))) (and (and (and (or x123 (or x16 (or x43 (or x63 x33)))) (or (or (or x29 (or x158 x49)) x16) x147)) (and (and (or x58 (or x151 (or (or x45 x28) x146))) (or (or x151 (or x55 (or x87 x75))) x24)) (and (or x31 (or x36 (or x12 (or x44 x98)))) (or x70 (or (or x91 (or x11 x56)) x36))))) (and (or (or (or x48 (or x108 x62)) x74) x52) (or x135 (or x74 (or x97 (or x109 x27)))))))) (and (and (or x2 (or (or (or x77 x67) x95) x66)) (or x2 (or x117 (or (or x106 x7) x124)))) (and (and (or (or (or (or x80 x153) x102) x135) x111) (or x111 (or x52 (or (or x157 x51) x113)))) (and (and (or x144 (or (or (or x61 x59) x138) x123)) (or (or (or (or x4 x25) x114) x147) x144)) (and (and (or x10 (or (or (or x1 x22) x127) x31)) (or x10 (or (or x82 (or x110 x37)) x70))) (and (or (or (or (or x154 x90) x143) x58) x57) (or (or x24 (or x125 (or x130 x83))) x57))))))))))
(assert (not (and (= (x3 x47 x41) x69) (and (and (= (x3 x47 x47) x41) (= (x3 x84 x47) x139)) (= x84 (x3 x69 x41))))))
(assert (not (and (and (= x69 (x3 x84 x47)) (and (= (x3 x41 x41) x47) (= (x3 x69 x41) x139))) (= x84 (x3 x41 x47)))))
(assert (not (and (= (x3 x139 x84) x47) (and (= x41 (x3 x47 x84)) (and (= x69 (x3 x41 x139)) (= (x3 x139 x139) x84))))))
(assert (not (and (= (x3 x84 x139) x69) (and (and (= x139 (x3 x84 x84)) (= (x3 x41 x84) x47)) (= (x3 x69 x139) x41)))))
(assert (not (and (and (= x69 (x3 x139 x41)) (and (= x84 (x3 x69 x47)) (= (x3 x47 x47) x41))) (= x139 (x3 x47 x41)))))
(assert (not (and (= x84 (x3 x41 x69)) (and (and (= x139 (x3 x47 x41)) (= x69 (x3 x41 x41))) (= x47 (x3 x84 x69))))))
(assert (not (and (= x84 (x3 x47 x69)) (and (= x139 (x3 x84 x69)) (and (= (x3 x47 x47) x69) (= (x3 x139 x47) x41))))))
(assert (not (and (= x41 (x3 x47 x84)) (and (= (x3 x41 x84) x69) (and (= x84 (x3 x47 x47)) (= x139 (x3 x69 x47)))))))
(assert (or (and (not (= x69 (x3 (x3 x69 x69) x69))) (and (and (and (not (= (x3 (x3 x69 x84) x69) x84)) (not (= x139 (x3 (x3 x69 x139) x69)))) (not (= x47 (x3 (x3 x69 x47) x69)))) (not (= x41 (x3 (x3 x69 x41) x69))))) (or (and (and (not (= (x3 (x3 x41 x41) x41) x41)) (and (and (not (= (x3 (x3 x41 x84) x41) x84)) (not (= x139 (x3 (x3 x41 x139) x41)))) (not (= x47 (x3 (x3 x41 x47) x41))))) (not (= (x3 (x3 x41 x69) x41) x69))) (or (or (and (and (not (= x41 (x3 (x3 x139 x41) x139))) (and (not (= (x3 (x3 x139 x47) x139) x47)) (and (not (= x139 (x3 (x3 x139 x139) x139))) (not (= (x3 (x3 x139 x84) x139) x84))))) (not (= x69 (x3 (x3 x139 x69) x139)))) (and (not (= x69 (x3 (x3 x84 x69) x84))) (and (and (and (not (= (x3 (x3 x84 x84) x84) x84)) (not (= x139 (x3 (x3 x84 x139) x84)))) (not (= x47 (x3 (x3 x84 x47) x84)))) (not (= (x3 (x3 x84 x41) x84) x41))))) (and (not (= x69 (x3 (x3 x47 x69) x47))) (and (not (= x41 (x3 (x3 x47 x41) x47))) (and (not (= (x3 (x3 x47 x47) x47) x47)) (and (not (= (x3 (x3 x47 x84) x47) x84)) (not (= x139 (x3 (x3 x47 x139) x47)))))))))))
(assert (not (and (and (and (= x47 (x3 x41 x69)) (= x139 (x3 x69 x69))) (= x41 (x3 x84 x139))) (= (x3 x69 x139) x84))))
(assert (not (and (and (and (= x47 (x3 x69 x69)) (= x41 (x3 x84 x69))) (= x84 (x3 x139 x47))) (= x139 (x3 x69 x47)))))
(assert (not (and (= (x3 x139 x41) x47) (and (= x84 (x3 x47 x41)) (and (= x41 (x3 x139 x139)) (= x69 (x3 x84 x139)))))))
(assert (not (and (and (= x84 (x3 x69 x47)) (and (= x47 (x3 x41 x41)) (= (x3 x84 x41) x139))) (= x69 (x3 x41 x47)))))
(assert (not (and (and (and (= (x3 x41 x41) x139) (= x47 (x3 x84 x41))) (= (x3 x69 x139) x84)) (= x69 (x3 x41 x139)))))
(assert (not (and (= (x3 x41 x84) x139) (and (and (= (x3 x69 x41) x47) (= x84 (x3 x41 x41))) (= x69 (x3 x139 x84))))))
(assert (not (and (and (and (= x139 (x3 x41 x84)) (= x47 (x3 x84 x84))) (= x41 (x3 x69 x47))) (= x69 (x3 x84 x47)))))
(assert (let ((x119 (x3 x139 x139)) (x133 (x3 x41 x139)) (x134 (x3 x41 x47)) (x78 (x3 x84 x139)) (x42 (x3 x84 x84)) (x99 (x3 x69 x41)) (x65 (x3 x47 x84)) (x141 (x3 x139 x41)) (x105 (x3 x47 x41)) (x86 (x3 x69 x84)) (x32 (x3 x47 x69)) (x81 (x3 x139 x69)) (x14 (x3 x69 x47)) (x118 (x3 x47 x47)) (x45 (x3 x69 x69)) (x18 (x3 x41 x69)) (x148 (x3 x84 x47)) (x94 (x3 x139 x47)) (x103 (x3 x41 x41)) (x46 (x3 x47 x139)) (x21 (x3 x84 x41)) (x122 (x3 x139 x84)) (x6 (x3 x69 x139)) (x128 (x3 x84 x69)) (x68 (x3 x41 x84))) (let ((x19 (not (= x84 x65))) (x129 (not (= x84 x141))) (x106 (not (= x86 x69))) (x76 (not (= x139 x94))) (x35 (not (= x122 x139))) (x97 (not (= x47 x14))) (x34 (not (= x122 x84))) (x137 (not (= x84 x99))) (x116 (not (= x134 x84))) (x127 (not (= x21 x41))) (x115 (not (= x119 x139))) (x136 (not (= x47 x45))) (x143 (not (= x14 x41))) (x44 (not (= x139 x128))) (x88 (not (= x14 x84))) (x72 (not (= x105 x139))) (x60 (not (= x139 x68))) (x152 (not (= x32 x84))) (x30 (not (= x94 x47))) (x155 (not (= x139 x42))) (x48 (not (= x47 x128))) (x29 (not (= x47 x134))) (x110 (not (= x148 x41))) (x104 (not (= x119 x41))) (x95 (not (= x99 x69))) (x96 (not (= x133 x84))) (x54 (not (= x139 x103))) (x87 (not (= x65 x47))) (x33 (not (= x118 x47))) (x130 (not (= x134 x41))) (x114 (not (= x42 x69))) (x20 (not (= x94 x84))) (x145 (not (= x42 x84))) (x149 (not (= x84 x86))) (x158 (not (= x133 x47))) (x27 (not (= x47 x81))) (x74 (not (= x47 x32))) (x92 (not (= x139 x134))) (x146 (not (= x42 x47))) (x61 (not (= x119 x69))) (x132 (not (= x122 x47))) (x23 (not (= x42 x41))) (x126 (not (= x84 x21))) (x43 (not (= x21 x47))) (x90 (not (= x41 x6))) (x102 (not (= x68 x69))) (x50 (not (= x118 x84))) (x154 (not (= x41 x81))) (x98 (not (= x6 x139))) (x28 (not (= x45 x139))) (x17 (not (= x47 x78))) (x25 (not (= x18 x41))) (x7 (not (= x128 x69))) (x70 (not (= x94 x41))) (x107 (not (= x84 x45))) (x38 (not (= x18 x47))) (x123 (not (= x148 x69))) (x62 (not (= x47 x103))) (x71 (not (= x133 x139))) (x151 (not (= x47 x46))) (x53 (not (= x139 x86))) (x15 (not (= x139 x141))) (x82 (not (= x41 x46))) (x147 (not (= x69 x122))) (x108 (not (= x47 x86))) (x112 (not (= x46 x139))) (x89 (not (= x84 x6))) (x135 (not (= x21 x69))) (x40 (not (= x84 x103))) (x75 (not (= x47 x119))) (x117 (not (= x69 x81))) (x1 (not (= x41 x118))) (x80 (not (= x69 x94))) (x144 (not (= x46 x69))) (x157 (not (= x133 x69))) (x2 (not (= x69 x45))) (x59 (not (= x69 x78))) (x4 (not (= x41 x45))) (x39 (not (= x148 x84))) (x57 (not (= x41 x99))) (x22 (not (= x68 x41))) (x83 (not (= x41 x105))) (x124 (not (= x6 x69))) (x64 (not (= x99 x47))) (x138 (not (= x69 x65))) (x24 (not (= x86 x41))) (x56 (not (= x139 x32))) (x10 (not (= x141 x41))) (x77 (not (= x32 x69))) (x13 (not (= x139 x118))) (x121 (not (= x41 x78))) (x12 (not (= x139 x81))) (x101 (not (= x84 x128))) (x55 (not (= x148 x47))) (x109 (not (= x47 x6))) (x142 (not (= x148 x139))) (x5 (not (= x21 x139))) (x125 (not (= x103 x41))) (x67 (not (= x69 x14))) (x26 (not (= x105 x84))) (x91 (not (= x99 x139))) (x16 (not (= x47 x105))) (x156 (not (= x65 x139))) (x63 (not (= x47 x68))) (x113 (not (= x134 x69))) (x120 (not (= x128 x41))) (x73 (not (= x84 x68))) (x8 (not (= x84 x18))) (x31 (not (= x41 x133))) (x153 (not (= x69 x118))) (x11 (not (= x139 x14))) (x51 (not (= x141 x69))) (x150 (not (= x84 x81))) (x100 (not (= x139 x78))) (x49 (not (= x141 x47))) (x140 (not (= x84 x78))) (x58 (not (= x32 x41))) (x36 (not (= x139 x18))) (x9 (not (= x84 x46))) (x131 (not (= x84 x119))) (x111 (not (= x69 x103))) (x66 (not (= x18 x69))) (x37 (not (= x41 x65))) (x52 (not (= x105 x69))) (x79 (not (= x41 x122)))) (or (and (and (and (or x95 x66) (and (or x67 x77) (and (or x106 x7) (or x117 x124)))) (or x2 x2)) (and (and (and (and (or x52 x113) (and (and (or x138 x123) (or x144 x80)) (or x153 x153))) (or x67 x77)) (and (and (or x106 x7) (and (and (and (or x114 x114) (or x59 x147)) (or x138 x123)) (or x102 x135))) (and (or x117 x124) (and (or x51 x157) (and (and (or x147 x59) (or x61 x61)) (or x80 x144)))))) (and (or x95 x66) (and (or x111 x111) (and (and (or x51 x157) (or x135 x102)) (or x113 x52)))))) (or (or (or (and (and (and (or x8 x137) (and (and (or x116 x26) (and (or x96 x129) (or x126 x73))) (or x40 x40))) (and (and (and (or x101 x149) (and (and (and (or x145 x145) (or x34 x140)) (or x19 x39)) (or x73 x126))) (and (and (and (or x9 x20) (and (or x131 x131) (or x140 x34))) (or x129 x96)) (or x89 x150))) (and (and (or x116 x26) (and (and (or x9 x20) (or x19 x39)) (or x50 x50))) (or x152 x88)))) (and (or x107 x107) (and (and (or x152 x88) (and (or x149 x101) (or x89 x150))) (or x8 x137)))) (and (and (and (and (and (and (or x60 x5) (and (and (or x155 x155) (or x35 x100)) (or x142 x156))) (or x44 x53)) (and (and (and (and (or x115 x115) (or x100 x35)) (or x112 x76)) (or x15 x71)) (or x98 x12))) (and (or x11 x56) (and (and (or x13 x13) (and (or x156 x142) (or x112 x76))) (or x92 x72)))) (and (or x36 x91) (and (and (or x92 x72) (and (or x15 x71) (or x60 x5))) (or x54 x54)))) (and (or x28 x28) (and (and (or x11 x56) (and (or x98 x12) (or x53 x44))) (or x36 x91))))) (and (and (and (or x64 x38) (and (or x74 x97) (and (or x48 x108) (or x109 x27)))) (or x136 x136)) (and (and (and (or x74 x97) (and (and (and (or x30 x151) (or x87 x55)) (or x33 x33)) (or x16 x29))) (and (and (or x108 x48) (and (and (or x55 x87) (and (or x132 x17) (or x146 x146))) (or x43 x63))) (and (or x27 x109) (and (or x49 x158) (and (and (or x75 x75) (or x132 x17)) (or x30 x151)))))) (and (or x64 x38) (and (and (and (or x43 x63) (or x49 x158)) (or x29 x16)) (or x62 x62)))))) (and (and (and (or x57 x25) (and (or x125 x125) (and (or x83 x130) (and (or x10 x31) (or x127 x22))))) (and (and (and (and (or x31 x10) (and (and (or x79 x121) (or x104 x104)) (or x70 x82))) (or x154 x90)) (and (and (or x22 x127) (and (and (or x121 x79) (or x23 x23)) (or x37 x110))) (or x24 x120))) (and (or x143 x58) (and (or x130 x83) (and (or x1 x1) (and (or x110 x37) (or x82 x70))))))) (and (and (and (or x58 x143) (and (or x154 x90) (or x120 x24))) (or x25 x57)) (or x4 x4))))))))
(assert (not (and (= x69 (x3 x139 x41)) (and (= (x3 x69 x41) x84) (and (= x47 (x3 x84 x139)) (= (x3 x139 x139) x41))))))
(assert (not (and (= x47 (x3 x139 x41)) (and (and (= x41 (x3 x139 x139)) (= (x3 x69 x139) x84)) (= (x3 x47 x41) x69)))))
(assert (not (and (and (and (= (x3 x41 x84) x139) (= (x3 x84 x84) x69)) (= (x3 x47 x69) x41)) (= x47 (x3 x84 x69)))))
(assert (not (and (and (= x41 (x3 x84 x139)) (and (= (x3 x47 x47) x139) (= x69 (x3 x41 x47)))) (= x84 (x3 x47 x139)))))
(assert (not (and (= (x3 x84 x41) x139) (and (= x47 (x3 x139 x41)) (and (= (x3 x84 x84) x41) (= (x3 x47 x84) x69))))))
(assert (not (and (and (and (= x69 (x3 x139 x139)) (= (x3 x47 x139) x41)) (= x47 (x3 x84 x69))) (= x84 (x3 x139 x69)))))
(assert (not (and (= x84 (x3 x41 x69)) (and (and (= (x3 x41 x41) x69) (= x47 (x3 x139 x41))) (= x139 (x3 x84 x69))))))
(assert (not (and (= x139 (x3 x69 x41)) (and (and (= (x3 x69 x69) x41) (= (x3 x84 x69) x47)) (= (x3 x139 x41) x84)))))
(assert (not (and (and (and (= (x3 x84 x47) x139) (= (x3 x47 x47) x69)) (= x84 (x3 x41 x69))) (= x41 (x3 x47 x69)))))
(assert (and (and (or (not (= x69 (x3 (x3 x69 x41) x41))) (or (not (= (x3 (x3 x41 x41) x41) x41)) (or (or (not (= (x3 (x3 x139 x41) x41) x139)) (not (= (x3 (x3 x84 x41) x41) x84))) (not (= x47 (x3 (x3 x47 x41) x41)))))) (and (or (or (or (or (not (= x139 (x3 (x3 x139 x47) x47))) (not (= x84 (x3 (x3 x84 x47) x47)))) (not (= (x3 (x3 x47 x47) x47) x47))) (not (= (x3 (x3 x41 x47) x47) x41))) (not (= x69 (x3 (x3 x69 x47) x47)))) (and (or (not (= (x3 (x3 x69 x139) x139) x69)) (or (or (not (= x47 (x3 (x3 x47 x139) x139))) (or (not (= (x3 (x3 x84 x139) x139) x84)) (not (= (x3 (x3 x139 x139) x139) x139)))) (not (= (x3 (x3 x41 x139) x139) x41)))) (or (not (= (x3 (x3 x69 x84) x84) x69)) (or (or (not (= x47 (x3 (x3 x47 x84) x84))) (or (not (= x139 (x3 (x3 x139 x84) x84))) (not (= (x3 (x3 x84 x84) x84) x84)))) (not (= (x3 (x3 x41 x84) x84) x41))))))) (or (or (or (not (= x47 (x3 (x3 x47 x69) x69))) (or (not (= (x3 (x3 x139 x69) x69) x139)) (not (= (x3 (x3 x84 x69) x69) x84)))) (not (= (x3 (x3 x41 x69) x69) x41))) (not (= (x3 (x3 x69 x69) x69) x69)))))
(assert (not (and (and (and (= (x3 x47 x69) x41) (= x139 (x3 x69 x69))) (= x47 (x3 x84 x139))) (= (x3 x69 x139) x84))))
(assert (not (and (= (x3 x139 x69) x47) (and (= (x3 x47 x69) x41) (and (= (x3 x139 x139) x69) (= x84 (x3 x41 x139)))))))
(assert (not (and (= x47 (x3 x41 x84)) (and (and (= (x3 x69 x41) x139) (= x84 (x3 x41 x41))) (= (x3 x47 x84) x69)))))
(assert (not (and (= x69 (x3 x84 x41)) (and (= (x3 x69 x41) x139) (and (= x41 (x3 x84 x84)) (= x47 (x3 x139 x84)))))))
(assert (not (and (= x139 (x3 x47 x69)) (and (and (= x84 (x3 x41 x47)) (= (x3 x47 x47) x69)) (= x41 (x3 x139 x69))))))
(assert (not (and (and (and (= (x3 x69 x69) x84) (= (x3 x41 x69) x139)) (= x41 (x3 x47 x84))) (= (x3 x69 x84) x47))))
(assert (not (and (= (x3 x69 x41) x84) (and (and (= x41 (x3 x69 x69)) (= (x3 x47 x69) x139)) (= x47 (x3 x84 x41))))))
(assert (not (and (= (x3 x139 x47) x84) (and (= (x3 x84 x47) x69) (and (= x41 (x3 x69 x139)) (= x47 (x3 x139 x139)))))))
(assert (and (and (not (= x69 x47)) (and (and (not (= x69 x139)) (and (not (= x139 x41)) (and (and (not (= x84 x69)) (and (not (= x84 x41)) (and (not (= x139 x84)) (not (= x84 x47))))) (not (= x139 x47))))) (not (= x47 x41)))) (not (= x41 x69))))
(assert (not (and (and (and (= x84 (x3 x41 x41)) (= (x3 x47 x41) x139)) (= x47 (x3 x69 x84))) (= x69 (x3 x41 x84)))))
(assert (not (and (= (x3 x47 x69) x84) (and (= (x3 x84 x69) x41) (and (= (x3 x47 x47) x69) (= x139 (x3 x41 x47)))))))
(assert (not (and (= (x3 x84 x47) x139) (and (= x41 (x3 x139 x47)) (and (= (x3 x84 x84) x47) (= x69 (x3 x41 x84)))))))
(assert (not (and (= x41 (x3 x69 x47)) (and (and (= x139 (x3 x84 x69)) (= (x3 x69 x69) x47)) (= x84 (x3 x41 x47))))))
(assert (not (and (= x41 (x3 x139 x84)) (and (= x69 (x3 x41 x84)) (and (= (x3 x69 x139) x47) (= (x3 x139 x139) x84))))))
(assert (not (and (= (x3 x69 x139) x41) (and (and (= (x3 x69 x69) x139) (= (x3 x84 x69) x47)) (= x84 (x3 x41 x139))))))
(assert (not (and (and (= (x3 x69 x84) x139) (and (= (x3 x41 x41) x84) (= (x3 x139 x41) x47))) (= x69 (x3 x41 x84)))))
(assert (not (and (= x41 (x3 x139 x69)) (and (= (x3 x41 x69) x47) (and (= (x3 x139 x139) x69) (= x84 (x3 x47 x139)))))))
(assert (not (and (= x41 (x3 x69 x84)) (and (= x47 (x3 x41 x84)) (and (= x139 (x3 x47 x69)) (= (x3 x69 x69) x84))))))
(assert (not (and (and (and (= x84 (x3 x47 x47)) (= x69 (x3 x41 x47))) (= (x3 x139 x84) x41)) (= (x3 x47 x84) x139))))
(assert (or (= (x3 x69 x69) x69) (or (= (x3 x41 x41) x41) (or (= (x3 x47 x47) x47) (or (= x139 (x3 x139 x139)) (= (x3 x84 x84) x84))))))
(assert (let ((x96 (x3 x47 x139)) (x101 (x3 x41 x47)) (x20 (x3 x139 x47)) (x149 (x3 x41 x139)) (x150 (x3 x41 x69)) (x19 (x3 x84 x69)) (x73 (x3 x139 x69)) (x129 (x3 x47 x47)) (x88 (x3 x69 x84)) (x126 (x3 x47 x84)) (x131 (x3 x84 x41)) (x116 (x3 x47 x41)) (x89 (x3 x41 x41)) (x152 (x3 x69 x139)) (x40 (x3 x41 x84)) (x8 (x3 x69 x41)) (x26 (x3 x47 x69)) (x145 (x3 x84 x84)) (x39 (x3 x139 x84)) (x50 (x3 x139 x41)) (x137 (x3 x69 x47)) (x140 (x3 x84 x47)) (x9 (x3 x139 x139)) (x34 (x3 x84 x139)) (x107 (x3 x69 x69))) (and (and (and (and (and (and (and (and (or (or (or (= x145 x47) (or (= x145 x139) (= x145 x84))) (= x41 x145)) (= x145 x69)) (or (= x34 x69) (or (= x41 x34) (or (= x34 x47) (or (= x34 x84) (= x139 x34)))))) (or (or (or (= x140 x47) (or (= x140 x139) (= x84 x140))) (= x41 x140)) (= x69 x140))) (or (or (or (= x47 x131) (or (= x131 x84) (= x131 x139))) (= x131 x41)) (= x131 x69))) (or (= x19 x69) (or (or (= x47 x19) (or (= x139 x19) (= x84 x19))) (= x19 x41)))) (and (or (= x73 x69) (or (= x41 x73) (or (or (= x73 x139) (= x73 x84)) (= x47 x73)))) (and (and (or (or (= x41 x20) (or (= x47 x20) (or (= x20 x139) (= x84 x20)))) (= x69 x20)) (and (or (= x69 x9) (or (= x41 x9) (or (= x47 x9) (or (= x9 x84) (= x9 x139))))) (or (= x39 x69) (or (= x39 x41) (or (= x39 x47) (or (= x39 x84) (= x139 x39))))))) (or (or (= x41 x50) (or (= x47 x50) (or (= x139 x50) (= x84 x50)))) (= x50 x69))))) (and (or (or (or (= x47 x26) (or (= x84 x26) (= x26 x139))) (= x26 x41)) (= x69 x26)) (and (or (= x116 x69) (or (= x41 x116) (or (= x116 x47) (or (= x139 x116) (= x84 x116))))) (and (or (or (= x41 x129) (or (or (= x129 x139) (= x84 x129)) (= x129 x47))) (= x129 x69)) (and (or (or (or (or (= x96 x139) (= x96 x84)) (= x47 x96)) (= x96 x41)) (= x69 x96)) (or (= x69 x126) (or (or (= x126 x47) (or (= x139 x126) (= x126 x84))) (= x41 x126)))))))) (and (and (and (and (or (or (= x41 x149) (or (= x47 x149) (or (= x149 x84) (= x139 x149)))) (= x149 x69)) (or (or (= x41 x40) (or (= x40 x47) (or (= x40 x84) (= x40 x139)))) (= x69 x40))) (or (= x101 x69) (or (= x101 x41) (or (or (= x101 x139) (= x84 x101)) (= x47 x101))))) (or (= x89 x69) (or (or (or (= x89 x139) (= x89 x84)) (= x47 x89)) (= x89 x41)))) (or (= x150 x69) (or (or (= x47 x150) (or (= x150 x84) (= x139 x150))) (= x41 x150))))) (and (and (and (or (or (or (= x47 x137) (or (= x139 x137) (= x84 x137))) (= x41 x137)) (= x69 x137)) (and (or (or (= x41 x88) (or (= x88 x47) (or (= x88 x84) (= x88 x139)))) (= x69 x88)) (or (or (= x41 x152) (or (or (= x152 x84) (= x139 x152)) (= x47 x152))) (= x69 x152)))) (or (= x8 x69) (or (= x41 x8) (or (= x8 x47) (or (= x139 x8) (= x84 x8)))))) (or (= x107 x69) (or (or (or (= x139 x107) (= x107 x84)) (= x107 x47)) (= x41 x107)))))))
(assert (not (and (and (and (= x41 (x3 x84 x139)) (= (x3 x139 x139) x69)) (= (x3 x47 x69) x84)) (= x47 (x3 x139 x69)))))
(check-sat)
(exit)
